24
4 7
4 19
4 0
4 5
4 21
4 2
7 16
7 19
7 10
7 14
7 17
1 3
1 15
1 14
1 23
1 13
1 18
3 14
3 16
3 9
3 2
3 8
15 20
15 10
15 19
15 8
15 14
20 17
20 2
20 19
20 23
20 10
2 8
2 22
2 12
8 9
8 5
8 21
9 22
9 17
9 10
9 13
22 11
22 16
22 6
22 12
17 16
17 11
17 21
10 6
10 13
16 18
16 23
18 19
18 14
18 6
18 12
19 0
12 13
12 5
12 23
13 21
13 23
21 5
21 11
14 6
5 11
5 0
6 11
6 0
11 0
0 23
